solution status: optimal solution found
objective value:                     134603.357142856
d11(0,0)                                            1 	(obj:0)
d11(1,1)                                            1 	(obj:0)
d11(1,2)                                            1 	(obj:0)
d11(1,3)                                            1 	(obj:0)
d11(2,4)                                            1 	(obj:0)
d11(2,5)                                            1 	(obj:0)
d11(2,7)                                            1 	(obj:0)
d11(2,8)                                            1 	(obj:0)
d11(2,10)                                           1 	(obj:0)
d11(2,11)                                           1 	(obj:0)
d11(3,13)                                           1 	(obj:0)
d11(3,14)                                           1 	(obj:0)
d11(3,16)                                           1 	(obj:0)
d11(3,17)                                           1 	(obj:0)
d11(3,19)                                           1 	(obj:0)
d11(3,20)                                           1 	(obj:0)
d11(3,22)                                           1 	(obj:0)
d11(3,23)                                           1 	(obj:0)
d11(3,25)                                           1 	(obj:0)
d11(3,26)                                           1 	(obj:0)
d11(3,28)                                           1 	(obj:0)
d11(3,29)                                           1 	(obj:0)
d11(3,31)                                           1 	(obj:0)
d11(3,32)                                           1 	(obj:0)
d11(3,34)                                           1 	(obj:0)
d11(3,35)                                           1 	(obj:0)
d11(3,37)                                           1 	(obj:0)
d11(3,38)                                           1 	(obj:0)
d12(2,6)                                            1 	(obj:0)
d12(2,9)                                            1 	(obj:0)
d12(2,12)                                           1 	(obj:0)
d12(3,15)                                           1 	(obj:0)
d12(3,18)                                           1 	(obj:0)
d12(3,24)                                           1 	(obj:0)
d12(3,27)                                           1 	(obj:0)
d12(3,30)                                           1 	(obj:0)
d12(3,33)                                           1 	(obj:0)
d12(3,36)                                           1 	(obj:0)
d12(3,39)                                           1 	(obj:0)
d21(2,4)                                            1 	(obj:0)
d21(3,13)                                           1 	(obj:0)
d21(3,14)                                           1 	(obj:0)
d21(3,15)                                           1 	(obj:0)
d21(3,16)                                           1 	(obj:0)
d21(3,17)                                           1 	(obj:0)
d21(3,19)                                           1 	(obj:0)
d21(3,22)                                           1 	(obj:0)
d21(3,23)                                           1 	(obj:0)
d21(3,25)                                           1 	(obj:0)
d21(3,31)                                           1 	(obj:0)
STE(1,1)                             4415.97300985675 	(obj:0)
STE(0,0)                                         7875 	(obj:0)
STE(1,2)                             5412.73901319004 	(obj:0)
STE(1,3)                             6630.19121652342 	(obj:0)
STE(2,4)                             2024.43762660145 	(obj:0)
STE(2,5)                             3021.20362993474 	(obj:0)
STE(2,6)                             4017.96963326803 	(obj:0)
STE(2,7)                             3021.20362993474 	(obj:0)
STE(2,8)                             4017.96963326803 	(obj:0)
STE(2,9)                             5014.73563660132 	(obj:0)
STE(2,10)                            4238.65583326812 	(obj:0)
STE(2,11)                            5235.42183660141 	(obj:0)
STE(2,12)                             6232.1878399347 	(obj:0)
STE(3,13)                           -627.798009999873 	(obj:0)
STE(3,14)                            368.967993333418 	(obj:0)
STE(3,15)                            1394.43762660144 	(obj:0)
STE(3,16)                            368.967993333418 	(obj:0)
STE(3,17)                            1365.73399666671 	(obj:0)
STE(3,18)                            2391.20362993474 	(obj:0)
STE(3,19)                            1365.73399666671 	(obj:0)
STE(3,20)                                      2362.5 	(obj:0)
STE(3,21)                            3387.96963326803 	(obj:0)
STE(3,22)                            368.967993333418 	(obj:0)
STE(3,23)                            1365.73399666671 	(obj:0)
STE(3,24)                            2391.20362993474 	(obj:0)
STE(3,25)                            1365.73399666671 	(obj:0)
STE(3,26)                                      2362.5 	(obj:0)
STE(3,27)                            3387.96963326803 	(obj:0)
STE(3,28)                                      2362.5 	(obj:0)
STE(3,29)                            3359.26600333329 	(obj:0)
STE(3,30)                            4384.73563660132 	(obj:0)
STE(3,31)                             1586.4201966668 	(obj:0)
STE(3,32)                            2583.18620000009 	(obj:0)
STE(3,33)                            3608.65583326812 	(obj:0)
STE(3,34)                            2583.18620000009 	(obj:0)
STE(3,35)                            3579.95220333338 	(obj:0)
STE(3,36)                            4605.42183660141 	(obj:0)
STE(3,37)                            3579.95220333338 	(obj:0)
STE(3,38)                            4576.71820666667 	(obj:0)
STE(3,39)                             5602.1878399347 	(obj:0)
y1(3,23)                             922.922669941229 	(obj:0)
y1(3,25)                             1820.01207294119 	(obj:0)
y1(3,26)                              922.92266994123 	(obj:0)
y1(3,28)                             1820.01207294119 	(obj:0)
y1(3,29)                             922.922669941229 	(obj:0)
y1(3,31)                             1820.01207294119 	(obj:0)
y1(3,32)                             922.922669941229 	(obj:0)
y1(3,34)                             1820.01207294119 	(obj:0)
y1(3,35)                             922.922669941229 	(obj:0)
y1(3,37)                             1820.01207294119 	(obj:0)
y1(3,38)                              922.92266994123 	(obj:0)
BG(3)                                1028.25247314583 	(obj:10)
AVE(1)                               3199.95851117552 	(obj:0)
AVE(2)                               3265.15049132519 	(obj:0)
AVE(3)                               3291.35535332476 	(obj:0)
WG(1)                                3199.95851117552 	(obj:10)
WG(2)                                3265.15049132519 	(obj:10)
WG(3)                                3291.35535332476 	(obj:10)
BG(1)                                1860.58015018051 	(obj:10)
BG(2)                                815.038735133744 	(obj:10)
y1(1,1)                              2546.12429112892 	(obj:0)
y1(1,2)                              1649.03488812896 	(obj:0)
y1(1,3)                              553.327905128922 	(obj:0)
y1(2,4)                              1585.38184492977 	(obj:0)
y1(2,5)                              688.292441929809 	(obj:0)
y1(2,7)                              1585.38184492977 	(obj:0)
y1(2,8)                              688.292441929808 	(obj:0)
y1(2,10)                             1585.38184492977 	(obj:0)
y1(2,11)                             688.292441929808 	(obj:0)
y1(3,13)                             1820.01207294119 	(obj:0)
y1(3,14)                             922.922669941229 	(obj:0)
y1(3,16)                             1820.01207294119 	(obj:0)
y1(3,17)                             922.922669941229 	(obj:0)
y1(3,19)                             1820.01207294119 	(obj:0)
y1(3,20)                             922.922669941229 	(obj:0)
y1(3,22)                             1820.01207294119 	(obj:0)
y2(2,6)                              244.206972011874 	(obj:0)
y2(2,9)                              244.206972011874 	(obj:0)
y2(2,12)                             244.206972011874 	(obj:0)
